p cnf 10 50
5 -6 -10 0
-10 -8 -3 0
-9 -10 1 0
6 1 -9 0
7 -1 9 0
6 -7 2 0
-1 -3 -7 0
-10 -6 2 0
-2 -1 -8 0
-4 7 -8 0
4 2 -5 0
8 -9 -10 0
5 1 -4 0
-3 7 6 0
-7 -6 1 0
10 1 -6 0
10 5 -4 0
-1 -10 -2 0
-8 5 -7 0
-4 -5 -9 0
3 7 -4 0
-2 8 -1 0
-1 7 -5 0
-2 -10 6 0
5 -7 6 0
-10 -5 3 0
-4 3 -1 0
7 -5 -4 0
4 -9 3 0
1 8 -5 0
-9 -4 2 0
5 -4 1 0
10 7 6 0
-2 3 -8 0
5 2 -3 0
-5 -7 -2 0
3 -4 -7 0
8 7 5 0
-10 7 1 0
1 7 2 0
-5 10 -6 0
-4 9 7 0
2 -3 -9 0
9 2 10 0
-9 -8 3 0
-6 -1 8 0
7 -9 1 0
10 -7 -6 0
-9 3 7 0
-3 -6 -2 0
